StudentsNr = 10;
InstructorsNr = 38;
DaysNr = 1;
SlotsPerDay = 40;
AvailabilitySlotsLenght = 5;
RoomNr = 2;
ProgrammNr = 2;
DegreeNr = 3;
RolesNr = 0;
CoursesNr = 2;
InstructorsProgramm = [{1, 2}, {1}, {1, 2}, {2}, {1}, {1, 2}, {1}, {2}, {2}, {2}, {2}, {1}, {2}, {1}, {1}, {2}, {1, 2}, {1, 2}, {1, 2}, {2}, {1}, {1}, {1, 2}, {1, 2}, {1}, {1}, {1}, {2}, {1}, {2}, {1, 2}, {1}, {1}, {1}, {2}, {1}, {2}, {2}];
InstructorRolesPerProgramm = array2d(1..ProgrammNr,{},[]);
InstructorsAvailability = [|1, 1, 1, 1, 1, 1, 1, 1, |1, 1, 1, 1, 1, 1, 1, 1, |0, 1, 1, 1, 1, 1, 1, 1, |0, 0, 0, 0, 1, 1, 1, 0, |1, 1, 0, 1, 1, 1, 1, 1, |0, 1, 1, 1, 1, 1, 1, 1, |0, 1, 1, 1, 1, 1, 1, 1, |1, 1, 1, 1, 1, 1, 0, 0, |1, 1, 1, 1, 1, 0, 1, 1, |1, 1, 0, 1, 1, 1, 0, 1, |1, 1, 1, 1, 1, 1, 1, 0, |1, 1, 1, 0, 0, 1, 1, 0, |1, 1, 1, 0, 1, 0, 1, 1, |1, 1, 1, 1, 1, 1, 0, 0, |0, 0, 1, 1, 0, 1, 1, 1, |0, 1, 1, 1, 1, 1, 1, 1, |0, 1, 1, 1, 1, 1, 1, 0, |1, 0, 1, 1, 1, 0, 1, 1, |1, 1, 1, 1, 1, 1, 0, 1, |1, 1, 1, 0, 1, 1, 1, 1, |0, 1, 1, 1, 1, 1, 1, 1, |1, 1, 1, 1, 0, 1, 1, 0, |0, 1, 1, 0, 0, 0, 0, 0, |0, 0, 1, 0, 0, 0, 1, 1, |1, 1, 1, 1, 1, 1, 1, 1, |0, 1, 1, 1, 1, 1, 1, 1, |0, 1, 1, 1, 1, 1, 1, 1, |1, 1, 0, 1, 0, 0, 1, 1, |0, 1, 1, 0, 1, 1, 1, 1, |1, 1, 1, 1, 1, 1, 1, 1, |1, 1, 0, 1, 1, 1, 0, 1, |0, 1, 1, 1, 1, 1, 1, 1, |1, 1, 1, 1, 1, 1, 1, 1, |1, 1, 1, 1, 0, 1, 1, 1, |1, 0, 1, 1, 1, 1, 0, 0, |1, 1, 1, 1, 1, 1, 0, 1, |1, 1, 1, 1, 1, 1, 1, 1, |1, 0, 0, 1, 1, 1, 1, 1|];
StudentsProgramm = [1, 2, 1, 1, 1, 1, 1, 2, 1, 2];
StudentsDegree = [2, 3, 1, 3, 3, 3, 3, 2, 1, 2];
StudentsSupervisorId = [29, 28, 15, 29, 27, 27, 12, 38, 6, 23];
StudentsCourseIds = [{}, {}, {}, {}, {}, {}, {}, {}, {}, {}];
StudentsAvailability = [|1, 1, 1, 1, 1, 1, 1, 1, |1, 1, 1, 1, 1, 1, 1, 1, |1, 1, 1, 0, 0, 1, 1, 1, |0, 0, 0, 0, 0, 1, 0, 1, |0, 0, 0, 0, 1, 1, 1, 1, |1, 0, 1, 0, 0, 0, 1, 1, |1, 1, 0, 0, 1, 0, 1, 1, |0, 1, 0, 0, 0, 0, 0, 0, |0, 0, 1, 1, 1, 1, 1, 1, |1, 1, 1, 0, 0, 0, 1, 1|];
TheoryticalMinCard = [1, 1, 1, 1, 1, 1, 1, 1, 1, 1];
CoursesInstructorIds = [{13, 15, 18, 22, 26, 27, 29, 30, 37, 38}, {1, 2, 7, 18, 24, 26}];
RolesDemands = [];
RolesContinuity = [];
ExamLen = [1, 2, 2, 2, 2, 2, 2, 1, 2, 1];
LunchTsMinLen = 1;
LunchStarts = [12..26];
SupervisorAvailable = 5;
OptimalLunchLenght = [1, 1];
OptimalStartTs = [2, 0];
OptimalFinishTs = [0, 40];
MinimizeRooms = 400;
RolesSoftContinuity = array2d(1..2,{},[]);
SameDegreeInRoom = 0;
Mergeability = 2;
